100 78908

 785 24
201 374
131 149
676 559
560 918
790 392
739 845
626 1
987 169
534 31
114 329
829 909
252 97
778 607
958 452
697 939
597 123
461 213
365 30
354 434
637 278
752 870
679 605
199 615
494 532
792 92
476 446
537 1000
772 836
662 894
410 824
896 104
163 228
996 4
119 304
15 109
891 473
245 678
730 875
812 750
859 939
992 54
295 13
711 662
116 290
407 254
848 331
368 270
592 512
504 441
646 513
973 673
56 388
574 252
864 167
482 350
79 742
561 757
333 667
155 235
850 589
522 571
934 485
807 550
693 492
6 566
428 716
198 110
911 750
175 136
287 67
517 977
264 957
210 61
600 444
89 187
59 486
373 831
721 951
555 635
423 354
566 604
366 313
937 910
55 871
674 559
892 325
804 294
185 34
296 816
718 451
85 326
812 472
719 819
730 125
101 858
718 898
680 947
831 398
42 218
